SPARKNaCl/why3-z3/sparknacl-core.adb_500_31_range_check4_1.smt2
;; produced by z3_gnatprove.drv ;;
(set-info :smt-lib-version 2.5)
(set-info :source |VC generated by SPARK 2014|)
(set-info :category industrial)
(set-info :status unknown)
;;; generated by SMT-LIB2 driver
;;; SMT-LIB2 driver: bit-vectors, common part
;;; SMT-LIB2: integer arithmetic
(declare-datatypes ()
  ((t__ref (t__refqtmk (t__content (_ BitVec 32))))))

(declare-sort byte 0)

;; "to_rep"
(declare-fun to_rep (byte) (_ BitVec 8))

;; "of_rep"
(declare-fun of_rep ((_ BitVec 8)) byte)

;; "inversion_axiom"
(assert
  (forall ((x byte)) (! (= (of_rep (to_rep x)) x) :pattern ((to_rep x)) )))

;; "range_axiom"
(assert true)

;; "coerce_axiom"
(assert
  (forall ((x (_ BitVec 8)))
    (! (= (to_rep (of_rep x)) x) :pattern ((to_rep (of_rep x))) )))

(declare-sort map1 0)

;; "has_bounds"
(declare-fun has_bounds (map1
  Int
  Int) Bool)

;; "get"
(declare-fun get (map1
  Int) byte)

;; "slide"
(declare-fun slide (map1
  Int
  Int) map1)

;; "slide_eq"
(assert
  (forall ((a map1) (first Int))
    (! (= (slide a first first) a) :pattern ((slide a first first)) )))

;; "slide_def"
(assert
  (forall ((a map1) (old_first Int) (new_first Int))
    (! (and
         (forall ((i Int))
           (! (= (get (slide a old_first new_first) i) (get
                                                         a
                                                         (- i (- new_first old_first)))) :pattern (
           (get
             (slide a old_first new_first)
             i)) ))
         (forall ((new_last Int))
           (! (=>
                (has_bounds a old_first (- new_last (- new_first old_first)))
                (has_bounds (slide a old_first new_first) new_first new_last)) :pattern (
           (has_bounds
             (slide a old_first new_first)
             new_first
             new_last)) ))) :pattern ((slide a old_first new_first)) )))

;; "slice"
(declare-fun slice (map1
  Int
  Int) map1)

;; "slice_eq"
(assert
  (forall ((a map1) (f Int) (l Int))
    (! (=> (has_bounds a f l) (= (slice a f l) a)) :pattern ((slice a f l)
    (has_bounds a f l)) )))

;; "slice_slice"
(assert
  (forall ((a map1) (f1 Int) (l1 Int) (f2 Int) (l2 Int))
    (! (=>
         (and (<= f1 f2) (<= l2 l1))
         (= (slice (slice a f1 l1) f2 l2) (slice a f2 l2))) :pattern (
    (slice
      (slice a f1 l1)
      f2
      l2)) )))

;; "slice_def"
(assert
  (forall ((a map1) (f Int) (l Int))
    (! (forall ((i Int))
         (! (=> (and (<= f i) (<= i l)) (= (get (slice a f l) i) (get a i))) :pattern (
         (get
           (slice a f l)
           i)) :pattern ((get a i)) )) :pattern ((slice a f l)) )))

;; "slice_has_bounds"
(assert
  (forall ((a map1) (f Int) (l Int))
    (! (has_bounds (slice a f l) f l) :pattern ((has_bounds
                                                  (slice a f l)
                                                  f
                                                  l)) )))

;; "ld32"
(declare-fun ld32 (map1) (_ BitVec 32))

;; "ld32__function_guard"
(declare-fun ld32__function_guard ((_ BitVec 32)
  map1) Bool)

(declare-const y map1)

(declare-const x0 (_ BitVec 32))

(declare-const x1 (_ BitVec 32))

(declare-const x2 (_ BitVec 32))

(declare-const x3 (_ BitVec 32))

(declare-const x4 (_ BitVec 32))

(declare-const x5 (_ BitVec 32))

(declare-const x6 (_ BitVec 32))

(declare-const x7 (_ BitVec 32))

(declare-const x8 (_ BitVec 32))

(declare-const x9 (_ BitVec 32))

(declare-const x10 (_ BitVec 32))

(declare-const x11 (_ BitVec 32))

(declare-const x12 (_ BitVec 32))

(declare-const x13 (_ BitVec 32))

(declare-const x14 (_ BitVec 32))

(declare-const x15 (_ BitVec 32))

;; "x15'unused"
(define-fun x15qtunused () t__ref
  (t__refqtmk x15))

;; "x14'unused"
(define-fun x14qtunused () t__ref
  (t__refqtmk x14))

;; "x13'unused"
(define-fun x13qtunused () t__ref
  (t__refqtmk x13))

;; "x12'unused"
(define-fun x12qtunused () t__ref
  (t__refqtmk x12))

;; "x11'unused"
(define-fun x11qtunused () t__ref
  (t__refqtmk x11))

;; "x10'unused"
(define-fun x10qtunused () t__ref
  (t__refqtmk x10))

;; "x9'unused"
(define-fun x9qtunused () t__ref
  (t__refqtmk x9))

;; "x8'unused"
(define-fun x8qtunused () t__ref
  (t__refqtmk x8))

;; "x7'unused"
(define-fun x7qtunused () t__ref
  (t__refqtmk x7))

;; "x6'unused"
(define-fun x6qtunused () t__ref
  (t__refqtmk x6))

;; "x5'unused"
(define-fun x5qtunused () t__ref
  (t__refqtmk x5))

;; "x4'unused"
(define-fun x4qtunused () t__ref
  (t__refqtmk x4))

;; "x3'unused"
(define-fun x3qtunused () t__ref
  (t__refqtmk x3))

;; "x2'unused"
(define-fun x2qtunused () t__ref
  (t__refqtmk x2))

;; "x1'unused"
(define-fun x1qtunused () t__ref
  (t__refqtmk x1))

;; "x0'unused"
(define-fun x0qtunused () t__ref
  (t__refqtmk x0))

;; "Assume"
(assert true)

;; "Assume"
(assert true)

;; "Assume"
(assert true)

;; "Assume"
(assert true)

;; "Assume"
(assert true)

;; "Assume"
(assert true)

;; "Assume"
(assert true)

;; "Assume"
(assert true)

;; "Assume"
(assert true)

;; "Assume"
(assert true)

;; "Assume"
(assert true)

;; "Assume"
(assert true)

;; "Assume"
(assert true)

;; "Assume"
(assert true)

;; "Assume"
(assert true)

;; "Assume"
(assert true)

;; "Assume"
(assert (has_bounds y 0 63))

;; "Assert"
(assert
  (=> (<= 0 3) (and (and (<= 0 0) (<= 0 63)) (and (<= 0 3) (<= 3 63)))))

;; "temp___2250"
(define-fun temp___2250 () map1
  (slice y 0 3))

;; "slice'result'unused"
(define-fun sliceqtresultqtunused () map1
  temp___2250)

;; "o"
(define-fun o () (_ BitVec 32)
  (ld32 temp___2250))

;; "H"
(assert (ld32__function_guard o temp___2250))

;; "H"
(assert true)

;; "ld32'result'unused"
(define-fun ld32qtresultqtunused () (_ BitVec 32)
  o)

;; "t__content'result'unused"
(define-fun t__contentqtresultqtunused () (_ BitVec 32)
  x0)

;; "bw_xor'result'unused"
(define-fun bw_xorqtresultqtunused () (_ BitVec 32)
  (bvxor x0 o))

;; "Assert"
(assert
  (=> (<= 4 7) (and (and (<= 0 4) (<= 4 63)) (and (<= 0 7) (<= 7 63)))))

;; "temp___2255"
(define-fun temp___2255 () map1
  (slice y 4 7))

;; "slice'result'unused"
(define-fun sliceqtresultqtunused1 () map1
  temp___2255)

;; "temp___2256"
(define-fun temp___2256 () map1
  (slide temp___2255 4 0))

;; "slide'result'unused"
(define-fun slideqtresultqtunused () map1
  temp___2256)

;; "o"
(define-fun o1 () (_ BitVec 32)
  (ld32 temp___2256))

;; "H"
(assert (ld32__function_guard o1 temp___2256))

;; "H"
(assert true)

;; "ld32'result'unused"
(define-fun ld32qtresultqtunused1 () (_ BitVec 32)
  o1)

;; "t__content'result'unused"
(define-fun t__contentqtresultqtunused1 () (_ BitVec 32)
  x1)

;; "bw_xor'result'unused"
(define-fun bw_xorqtresultqtunused1 () (_ BitVec 32)
  (bvxor x1 o1))

;; "Assert"
(assert
  (=> (<= 8 11) (and (and (<= 0 8) (<= 8 63)) (and (<= 0 11) (<= 11 63)))))

;; "temp___2260"
(define-fun temp___2260 () map1
  (slice y 8 11))

;; "slice'result'unused"
(define-fun sliceqtresultqtunused2 () map1
  temp___2260)

;; "temp___2261"
(define-fun temp___2261 () map1
  (slide temp___2260 8 0))

;; "slide'result'unused"
(define-fun slideqtresultqtunused1 () map1
  temp___2261)

;; "o"
(define-fun o2 () (_ BitVec 32)
  (ld32 temp___2261))

;; "H"
(assert (ld32__function_guard o2 temp___2261))

;; "H"
(assert true)

;; "ld32'result'unused"
(define-fun ld32qtresultqtunused2 () (_ BitVec 32)
  o2)

;; "t__content'result'unused"
(define-fun t__contentqtresultqtunused2 () (_ BitVec 32)
  x2)

;; "bw_xor'result'unused"
(define-fun bw_xorqtresultqtunused2 () (_ BitVec 32)
  (bvxor x2 o2))

;; "Assert"
(assert
  (=> (<= 12 15) (and (and (<= 0 12) (<= 12 63)) (and (<= 0 15) (<= 15 63)))))

;; "temp___2265"
(define-fun temp___2265 () map1
  (slice y 12 15))

;; "slice'result'unused"
(define-fun sliceqtresultqtunused3 () map1
  temp___2265)

;; "temp___2266"
(define-fun temp___2266 () map1
  (slide temp___2265 12 0))

;; "slide'result'unused"
(define-fun slideqtresultqtunused2 () map1
  temp___2266)

;; "o"
(define-fun o3 () (_ BitVec 32)
  (ld32 temp___2266))

;; "H"
(assert (ld32__function_guard o3 temp___2266))

;; "H"
(assert true)

;; "ld32'result'unused"
(define-fun ld32qtresultqtunused3 () (_ BitVec 32)
  o3)

;; "t__content'result'unused"
(define-fun t__contentqtresultqtunused3 () (_ BitVec 32)
  x3)

;; "bw_xor'result'unused"
(define-fun bw_xorqtresultqtunused3 () (_ BitVec 32)
  (bvxor x3 o3))

;; "Assert"
(assert
  (=> (<= 16 19) (and (and (<= 0 16) (<= 16 63)) (and (<= 0 19) (<= 19 63)))))

;; "temp___2270"
(define-fun temp___2270 () map1
  (slice y 16 19))

;; "slice'result'unused"
(define-fun sliceqtresultqtunused4 () map1
  temp___2270)

;; "temp___2271"
(define-fun temp___2271 () map1
  (slide temp___2270 16 0))

;; "slide'result'unused"
(define-fun slideqtresultqtunused3 () map1
  temp___2271)

;; "o"
(define-fun o4 () (_ BitVec 32)
  (ld32 temp___2271))

;; "H"
(assert (ld32__function_guard o4 temp___2271))

;; "H"
(assert true)

;; "ld32'result'unused"
(define-fun ld32qtresultqtunused4 () (_ BitVec 32)
  o4)

;; "t__content'result'unused"
(define-fun t__contentqtresultqtunused4 () (_ BitVec 32)
  x4)

;; "bw_xor'result'unused"
(define-fun bw_xorqtresultqtunused4 () (_ BitVec 32)
  (bvxor x4 o4))

;; "Assert"
(assert
  (=> (<= 20 23) (and (and (<= 0 20) (<= 20 63)) (and (<= 0 23) (<= 23 63)))))

;; "temp___2275"
(define-fun temp___2275 () map1
  (slice y 20 23))

;; "slice'result'unused"
(define-fun sliceqtresultqtunused5 () map1
  temp___2275)

;; "temp___2276"
(define-fun temp___2276 () map1
  (slide temp___2275 20 0))

;; "slide'result'unused"
(define-fun slideqtresultqtunused4 () map1
  temp___2276)

;; "o"
(define-fun o5 () (_ BitVec 32)
  (ld32 temp___2276))

;; "H"
(assert (ld32__function_guard o5 temp___2276))

;; "H"
(assert true)

;; "ld32'result'unused"
(define-fun ld32qtresultqtunused5 () (_ BitVec 32)
  o5)

;; "t__content'result'unused"
(define-fun t__contentqtresultqtunused5 () (_ BitVec 32)
  x5)

;; "bw_xor'result'unused"
(define-fun bw_xorqtresultqtunused5 () (_ BitVec 32)
  (bvxor x5 o5))

;; "H"
(assert (<= 24 27))

;; Goal "def'vc"
;; File "sparknacl-core.adb", line 423, characters 0-0
(assert
  (not (<= 27 63)))

(check-sat)
